19 965
525 7 504 7 362 7 209 9 25 11 818 15 619 21
525 7 482 7 358 7 166 12
525 7 479 7 356 7 109 9 965 11 699 15 550 22
529 7 485 7 272 7 90 9 798 11 593 18
525 7 484 7 368 7 123 9 857 11 634 18
525 7 446 7 265 7 65 9 890 11 728 18
525 7 482 7 362 7 201 9 13 11 819 18
525 7 479 7 355 7 106 9 927 13
525 7 479 7 355 7 106 9 927 13
525 7 479 7 355 7 106 9 927 13
520 7 476 7 355 7 196 12
525 7 445 7 263 7 62 9 888 11 719 18
535 8 492 8 398 9 279 10 184 14 58 26 897 50
535 8 492 8 398 9 279 10 184 14 58 26 897 50
520 7 444 7 352 7 190 9 19 11 841 15 712 23
525 7 445 7 264 7 63 9 889 11 725 18
539 7 515 7 439 11
525 7 479 7 355 7 106 9 932 13
525 7 482 7 365 7 115 9 948 13
